955473
394897
743727
459111
469563
47794
694021
193715
887833
420028
834800
445682
481063
217207
908049
631759
89553
249474
260314
327209
861499
15915
877917
929530
510490
197361
970560
792798
119935
148755
886477
862915
912180
502356
489510
307180
601599
963150
671573
289505
27139
345520
939906
217655
177222
901334
178110
717304
932878
808708
220987
482286
189348
431358
706654
204625
520698
324614
826349
240906
194408
937715
791459
510627
172626
205994
739299
476750
455398
587324
913545
408783
131330
7516
898395
597318
473778
272763
631774
979357
665879
500674
998469
44938
93987
129259
861956
356801
231424
754620
684356
138618
582160
747682
238447
155994
19792
87974
888042
297600
